    -8    -2   111   131    20    10
     9    -3   214   234    10    10
   -16     3   124   144    10    10
    -8    -1    31    51    20    10
    -2    -6    51    71    20    10
    -7    -9   150   170    10    10
     6    -7    24    44    10    10
     5    11   224   244    10    10
   -14     0   182   202    20    10
    11    -4   117   137    20    10
    -4     3   132   152    20    10
     2     6   190   210    20    10
    -1     0    73    93    10    10
    -5   -10   205   225    20    10
    10   -16   160   180    20    10
    20     3
    -8    23
   -19   -12
    -3   -22
    18   -17
    34    12
